c clasp version 2.1.1
c Reading from p73.cnf
c Solving...
s SATISFIABLE

c Models        : 1+    
c Time          : 3.015s (Solving: 2.17s 1st Model: 2.17s Unsat: 0.00s)
c CPU Time      : 3.000s
c Choices       : 29089
c Conflicts     : 6644
c Restarts      : 3      (Average: 2214.67 Last: 536)

c Variables     : 219288 (Eliminated: 67906 Frozen:    0)
c Constraints   : 241550 (Binary: 65.4% Ternary: 33.3% Other:  1.3%)
c Lemmas        : 6644   (Binary:  0.1% Ternary:  0.4% Other: 99.5%)
c   Conflict    : 6644   (Average Length: 201.4) 
c   Loop        : 0      (Average Length: 0.0) 
c   Other       : 0      (Average Length: 0.0)
c   Deleted     : 0     
